
(set-logic HORN)
(declare-rel assign_22_5_139_abs (Int Int Int Int Int Int Int Int Int Int Int))
(declare-rel assert_21_5_130_abs (Int Int Int Int Int Int Int Int Int Int Int))
(declare-rel while_20_1_142_abs (Int Int Int Int Int Int Int Int Int Int Int))
(declare-rel assign_19_1_104_abs (Int Int Int Int Int Int Int Int Int Int Int))
(declare-rel assign_16_5_95_abs (Int Int Int Int Int Int Int Int Int Int Int))
(declare-rel assign_15_5_86_abs (Int Int Int Int Int Int Int Int Int Int Int))
(declare-rel arrayassign_14_5_77_abs (Int Int Int Int Int Int Int Int Int Int Int))
(declare-rel while_13_1_98_abs (Int Int Int Int Int Int Int Int Int Int Int))
(declare-rel assign_11_1_55_abs (Int Int Int Int Int Int Int Int Int Int Int))
(declare-rel assign_10_1_43_abs (Int Int Int Int Int Int Int Int Int Int Int))
(declare-rel assign_9_1_37_abs (Int Int Int Int Int Int Int Int Int Int Int))
(declare-rel end_abs (Int Int Int Int Int Int Int Int Int Int Int))
(declare-rel start_abs (Int Int Int Int Int Int Int Int Int Int Int));Number of predicates (nodes) = 13
;Number of variables = 5
;Number of clauses = 16
;
(assert (forall ( (vacker_1 Int) (vacker_0 Int) (vacker_11 Int) (vacker_01 Int) (size Int) (j Int) (i Int) (i1 Int) (i2 Int) (i3 Int) (i4 Int)) (=> (and (=> (= i3 i4) (= vacker_0 vacker_1)) (=> (= i1 i2) (= vacker_01 vacker_11))) (start_abs i4 vacker_0 i3 vacker_0 i2 vacker_01 i1 vacker_01 size j i))))
(assert (forall ( (i Int) (j Int) (size Int) (vacker_1 Int) (vacker_0 Int) (vacker_11 Int) (vacker_01 Int) (i1 Int) (i2 Int) (i3 Int) (i4 Int)) (=> (and (=> (= i1 i2) (= vacker_0 vacker_1)) (=> (= i3 i4) (= vacker_01 vacker_11)) (start_abs i3 vacker_01 i3 vacker_01 i1 vacker_0 i1 vacker_0 size j i) (start_abs i3 vacker_01 i3 vacker_01 i1 vacker_0 i2 vacker_0 size j i) (start_abs i3 vacker_01 i3 vacker_01 i2 vacker_0 i1 vacker_0 size j i) (start_abs i3 vacker_01 i3 vacker_01 i2 vacker_0 i2 vacker_0 size j i) (start_abs i3 vacker_01 i4 vacker_01 i1 vacker_0 i1 vacker_0 size j i) (start_abs i3 vacker_01 i4 vacker_01 i1 vacker_0 i2 vacker_0 size j i) (start_abs i3 vacker_01 i4 vacker_01 i2 vacker_0 i1 vacker_0 size j i) (start_abs i3 vacker_01 i4 vacker_01 i2 vacker_0 i2 vacker_0 size j i) (start_abs i4 vacker_01 i3 vacker_01 i1 vacker_0 i1 vacker_0 size j i) (start_abs i4 vacker_01 i3 vacker_01 i1 vacker_0 i2 vacker_0 size j i) (start_abs i4 vacker_01 i3 vacker_01 i2 vacker_0 i1 vacker_0 size j i) (start_abs i4 vacker_01 i3 vacker_01 i2 vacker_0 i2 vacker_0 size j i) (start_abs i4 vacker_01 i4 vacker_01 i1 vacker_0 i1 vacker_0 size j i) (start_abs i4 vacker_01 i4 vacker_01 i1 vacker_0 i2 vacker_0 size j i) (start_abs i4 vacker_01 i4 vacker_01 i2 vacker_0 i1 vacker_0 size j i) (start_abs i4 vacker_01 i4 vacker_01 i2 vacker_0 i2 vacker_0 size j i)) (assign_9_1_37_abs i4 vacker_01 i3 vacker_01 i2 vacker_0 i1 vacker_0 size j i))))
;
;(assign)  i := 1
(assert (forall ( (i Int) (j Int) (size Int) (vacker_1 Int) (vacker_0 Int) (vacker_11 Int) (vacker_01 Int) (i1 Int) (i2 Int) (i3 Int) (i4 Int)) (=> (and (=> (= i1 i2) (= vacker_0 vacker_1)) (=> (= i3 i4) (= vacker_01 vacker_11)) (assign_9_1_37_abs i3 vacker_01 i3 vacker_01 i1 vacker_0 i1 vacker_0 size j i) (assign_9_1_37_abs i3 vacker_01 i3 vacker_01 i1 vacker_0 i2 vacker_0 size j i) (assign_9_1_37_abs i3 vacker_01 i3 vacker_01 i2 vacker_0 i1 vacker_0 size j i) (assign_9_1_37_abs i3 vacker_01 i3 vacker_01 i2 vacker_0 i2 vacker_0 size j i) (assign_9_1_37_abs i3 vacker_01 i4 vacker_01 i1 vacker_0 i1 vacker_0 size j i) (assign_9_1_37_abs i3 vacker_01 i4 vacker_01 i1 vacker_0 i2 vacker_0 size j i) (assign_9_1_37_abs i3 vacker_01 i4 vacker_01 i2 vacker_0 i1 vacker_0 size j i) (assign_9_1_37_abs i3 vacker_01 i4 vacker_01 i2 vacker_0 i2 vacker_0 size j i) (assign_9_1_37_abs i4 vacker_01 i3 vacker_01 i1 vacker_0 i1 vacker_0 size j i) (assign_9_1_37_abs i4 vacker_01 i3 vacker_01 i1 vacker_0 i2 vacker_0 size j i) (assign_9_1_37_abs i4 vacker_01 i3 vacker_01 i2 vacker_0 i1 vacker_0 size j i) (assign_9_1_37_abs i4 vacker_01 i3 vacker_01 i2 vacker_0 i2 vacker_0 size j i) (assign_9_1_37_abs i4 vacker_01 i4 vacker_01 i1 vacker_0 i1 vacker_0 size j i) (assign_9_1_37_abs i4 vacker_01 i4 vacker_01 i1 vacker_0 i2 vacker_0 size j i) (assign_9_1_37_abs i4 vacker_01 i4 vacker_01 i2 vacker_0 i1 vacker_0 size j i) (assign_9_1_37_abs i4 vacker_01 i4 vacker_01 i2 vacker_0 i2 vacker_0 size j i)) (assign_10_1_43_abs i4 vacker_01 i3 vacker_01 i2 vacker_0 i1 vacker_0 size j 1))))
;
;(assign)  j := 0
(assert (forall ( (i Int) (j Int) (size Int) (vacker_1 Int) (vacker_0 Int) (vacker_11 Int) (vacker_01 Int) (i1 Int) (i2 Int) (i3 Int) (i4 Int)) (=> (and (=> (= i1 i2) (= vacker_0 vacker_1)) (=> (= i3 i4) (= vacker_01 vacker_11)) (assign_10_1_43_abs i3 vacker_01 i3 vacker_01 i1 vacker_0 i1 vacker_0 size j i) (assign_10_1_43_abs i3 vacker_01 i3 vacker_01 i1 vacker_0 i2 vacker_0 size j i) (assign_10_1_43_abs i3 vacker_01 i3 vacker_01 i2 vacker_0 i1 vacker_0 size j i) (assign_10_1_43_abs i3 vacker_01 i3 vacker_01 i2 vacker_0 i2 vacker_0 size j i) (assign_10_1_43_abs i3 vacker_01 i4 vacker_01 i1 vacker_0 i1 vacker_0 size j i) (assign_10_1_43_abs i3 vacker_01 i4 vacker_01 i1 vacker_0 i2 vacker_0 size j i) (assign_10_1_43_abs i3 vacker_01 i4 vacker_01 i2 vacker_0 i1 vacker_0 size j i) (assign_10_1_43_abs i3 vacker_01 i4 vacker_01 i2 vacker_0 i2 vacker_0 size j i) (assign_10_1_43_abs i4 vacker_01 i3 vacker_01 i1 vacker_0 i1 vacker_0 size j i) (assign_10_1_43_abs i4 vacker_01 i3 vacker_01 i1 vacker_0 i2 vacker_0 size j i) (assign_10_1_43_abs i4 vacker_01 i3 vacker_01 i2 vacker_0 i1 vacker_0 size j i) (assign_10_1_43_abs i4 vacker_01 i3 vacker_01 i2 vacker_0 i2 vacker_0 size j i) (assign_10_1_43_abs i4 vacker_01 i4 vacker_01 i1 vacker_0 i1 vacker_0 size j i) (assign_10_1_43_abs i4 vacker_01 i4 vacker_01 i1 vacker_0 i2 vacker_0 size j i) (assign_10_1_43_abs i4 vacker_01 i4 vacker_01 i2 vacker_0 i1 vacker_0 size j i) (assign_10_1_43_abs i4 vacker_01 i4 vacker_01 i2 vacker_0 i2 vacker_0 size j i)) (assign_11_1_55_abs i4 vacker_01 i3 vacker_01 i2 vacker_0 i1 vacker_0 size 0 i))))
;
;(assign)  size := Support.random()
(assert (forall ( (rnd Int) (i Int) (j Int) (size Int) (vacker_1 Int) (vacker_0 Int) (vacker_11 Int) (vacker_01 Int) (i1 Int) (i2 Int) (i3 Int) (i4 Int)) (=> (and (=> (= i1 i2) (= vacker_0 vacker_1)) (=> (= i3 i4) (= vacker_01 vacker_11)) (assign_11_1_55_abs i3 vacker_01 i3 vacker_01 i1 vacker_0 i1 vacker_0 size j i) (assign_11_1_55_abs i3 vacker_01 i3 vacker_01 i1 vacker_0 i2 vacker_0 size j i) (assign_11_1_55_abs i3 vacker_01 i3 vacker_01 i2 vacker_0 i1 vacker_0 size j i) (assign_11_1_55_abs i3 vacker_01 i3 vacker_01 i2 vacker_0 i2 vacker_0 size j i) (assign_11_1_55_abs i3 vacker_01 i4 vacker_01 i1 vacker_0 i1 vacker_0 size j i) (assign_11_1_55_abs i3 vacker_01 i4 vacker_01 i1 vacker_0 i2 vacker_0 size j i) (assign_11_1_55_abs i3 vacker_01 i4 vacker_01 i2 vacker_0 i1 vacker_0 size j i) (assign_11_1_55_abs i3 vacker_01 i4 vacker_01 i2 vacker_0 i2 vacker_0 size j i) (assign_11_1_55_abs i4 vacker_01 i3 vacker_01 i1 vacker_0 i1 vacker_0 size j i) (assign_11_1_55_abs i4 vacker_01 i3 vacker_01 i1 vacker_0 i2 vacker_0 size j i) (assign_11_1_55_abs i4 vacker_01 i3 vacker_01 i2 vacker_0 i1 vacker_0 size j i) (assign_11_1_55_abs i4 vacker_01 i3 vacker_01 i2 vacker_0 i2 vacker_0 size j i) (assign_11_1_55_abs i4 vacker_01 i4 vacker_01 i1 vacker_0 i1 vacker_0 size j i) (assign_11_1_55_abs i4 vacker_01 i4 vacker_01 i1 vacker_0 i2 vacker_0 size j i) (assign_11_1_55_abs i4 vacker_01 i4 vacker_01 i2 vacker_0 i1 vacker_0 size j i) (assign_11_1_55_abs i4 vacker_01 i4 vacker_01 i2 vacker_0 i2 vacker_0 size j i)) (while_13_1_98_abs i4 vacker_01 i3 vacker_01 i2 vacker_0 i1 vacker_0 rnd j i))))
;
;(while)   while((i<size))
(assert (forall ( (vacker_1 Int) (vacker_0 Int) (vacker_11 Int) (vacker_01 Int) (size Int) (j Int) (i Int) (i1 Int) (i2 Int) (i3 Int) (i4 Int)) (=> (and (=> (= i3 i4) (= vacker_0 vacker_1)) (=> (= i1 i2) (= vacker_01 vacker_11)) (while_13_1_98_abs i3 vacker_0 i3 vacker_0 i1 vacker_01 i1 vacker_01 size j i) (while_13_1_98_abs i3 vacker_0 i3 vacker_0 i1 vacker_01 i2 vacker_01 size j i) (while_13_1_98_abs i3 vacker_0 i3 vacker_0 i2 vacker_01 i1 vacker_01 size j i) (while_13_1_98_abs i3 vacker_0 i3 vacker_0 i2 vacker_01 i2 vacker_01 size j i) (while_13_1_98_abs i3 vacker_0 i4 vacker_0 i1 vacker_01 i1 vacker_01 size j i) (while_13_1_98_abs i3 vacker_0 i4 vacker_0 i1 vacker_01 i2 vacker_01 size j i) (while_13_1_98_abs i3 vacker_0 i4 vacker_0 i2 vacker_01 i1 vacker_01 size j i) (while_13_1_98_abs i3 vacker_0 i4 vacker_0 i2 vacker_01 i2 vacker_01 size j i) (while_13_1_98_abs i4 vacker_0 i3 vacker_0 i1 vacker_01 i1 vacker_01 size j i) (while_13_1_98_abs i4 vacker_0 i3 vacker_0 i1 vacker_01 i2 vacker_01 size j i) (while_13_1_98_abs i4 vacker_0 i3 vacker_0 i2 vacker_01 i1 vacker_01 size j i) (while_13_1_98_abs i4 vacker_0 i3 vacker_0 i2 vacker_01 i2 vacker_01 size j i) (while_13_1_98_abs i4 vacker_0 i4 vacker_0 i1 vacker_01 i1 vacker_01 size j i) (while_13_1_98_abs i4 vacker_0 i4 vacker_0 i1 vacker_01 i2 vacker_01 size j i) (while_13_1_98_abs i4 vacker_0 i4 vacker_0 i2 vacker_01 i1 vacker_01 size j i) (while_13_1_98_abs i4 vacker_0 i4 vacker_0 i2 vacker_01 i2 vacker_01 size j i) (< i size)) (arrayassign_14_5_77_abs i4 vacker_0 i3 vacker_0 i2 vacker_01 i1 vacker_01 size j i))))
(assert (forall ( (vacker_1 Int) (vacker_0 Int) (vacker_11 Int) (vacker_01 Int) (size Int) (j Int) (i Int) (i1 Int) (i2 Int) (i3 Int) (i4 Int)) (=> (and (=> (= i3 i4) (= vacker_0 vacker_1)) (=> (= i1 i2) (= vacker_01 vacker_11)) (while_13_1_98_abs i3 vacker_0 i3 vacker_0 i1 vacker_01 i1 vacker_01 size j i) (while_13_1_98_abs i3 vacker_0 i3 vacker_0 i1 vacker_01 i2 vacker_01 size j i) (while_13_1_98_abs i3 vacker_0 i3 vacker_0 i2 vacker_01 i1 vacker_01 size j i) (while_13_1_98_abs i3 vacker_0 i3 vacker_0 i2 vacker_01 i2 vacker_01 size j i) (while_13_1_98_abs i3 vacker_0 i4 vacker_0 i1 vacker_01 i1 vacker_01 size j i) (while_13_1_98_abs i3 vacker_0 i4 vacker_0 i1 vacker_01 i2 vacker_01 size j i) (while_13_1_98_abs i3 vacker_0 i4 vacker_0 i2 vacker_01 i1 vacker_01 size j i) (while_13_1_98_abs i3 vacker_0 i4 vacker_0 i2 vacker_01 i2 vacker_01 size j i) (while_13_1_98_abs i4 vacker_0 i3 vacker_0 i1 vacker_01 i1 vacker_01 size j i) (while_13_1_98_abs i4 vacker_0 i3 vacker_0 i1 vacker_01 i2 vacker_01 size j i) (while_13_1_98_abs i4 vacker_0 i3 vacker_0 i2 vacker_01 i1 vacker_01 size j i) (while_13_1_98_abs i4 vacker_0 i3 vacker_0 i2 vacker_01 i2 vacker_01 size j i) (while_13_1_98_abs i4 vacker_0 i4 vacker_0 i1 vacker_01 i1 vacker_01 size j i) (while_13_1_98_abs i4 vacker_0 i4 vacker_0 i1 vacker_01 i2 vacker_01 size j i) (while_13_1_98_abs i4 vacker_0 i4 vacker_0 i2 vacker_01 i1 vacker_01 size j i) (while_13_1_98_abs i4 vacker_0 i4 vacker_0 i2 vacker_01 i2 vacker_01 size j i) (not (< i size))) (assign_19_1_104_abs i4 vacker_0 i3 vacker_0 i2 vacker_01 i1 vacker_01 size j i))))
;
;(aassign) a_copy[i] := a[i]
(assert (forall ( (i Int) (j Int) (size Int) (vacker_2 Int) (vacker_1 Int) (vacker_0 Int) (vacker_11 Int) (vacker_01 Int) (i1 Int) (i2 Int) (i3 Int) (i4 Int)) (=> (and (=> (= i i1) (= vacker_0 vacker_1)) (=> (= i i2) (= vacker_0 vacker_2)) (=> (= i1 i2) (= vacker_1 vacker_2)) (=> (= i3 i4) (= vacker_01 vacker_11)) (arrayassign_14_5_77_abs i3 vacker_01 i3 vacker_01 i vacker_0 i vacker_0 size j i) (arrayassign_14_5_77_abs i3 vacker_01 i3 vacker_01 i vacker_0 i1 vacker_0 size j i) (arrayassign_14_5_77_abs i3 vacker_01 i3 vacker_01 i vacker_0 i2 vacker_0 size j i) (arrayassign_14_5_77_abs i3 vacker_01 i3 vacker_01 i1 vacker_0 i vacker_0 size j i) (arrayassign_14_5_77_abs i3 vacker_01 i3 vacker_01 i1 vacker_0 i1 vacker_0 size j i) (arrayassign_14_5_77_abs i3 vacker_01 i3 vacker_01 i1 vacker_0 i2 vacker_0 size j i) (arrayassign_14_5_77_abs i3 vacker_01 i3 vacker_01 i2 vacker_0 i vacker_0 size j i) (arrayassign_14_5_77_abs i3 vacker_01 i3 vacker_01 i2 vacker_0 i1 vacker_0 size j i) (arrayassign_14_5_77_abs i3 vacker_01 i3 vacker_01 i2 vacker_0 i2 vacker_0 size j i) (arrayassign_14_5_77_abs i3 vacker_01 i4 vacker_01 i vacker_0 i vacker_0 size j i) (arrayassign_14_5_77_abs i3 vacker_01 i4 vacker_01 i vacker_0 i1 vacker_0 size j i) (arrayassign_14_5_77_abs i3 vacker_01 i4 vacker_01 i vacker_0 i2 vacker_0 size j i) (arrayassign_14_5_77_abs i3 vacker_01 i4 vacker_01 i1 vacker_0 i vacker_0 size j i) (arrayassign_14_5_77_abs i3 vacker_01 i4 vacker_01 i1 vacker_0 i1 vacker_0 size j i) (arrayassign_14_5_77_abs i3 vacker_01 i4 vacker_01 i1 vacker_0 i2 vacker_0 size j i) (arrayassign_14_5_77_abs i3 vacker_01 i4 vacker_01 i2 vacker_0 i vacker_0 size j i) (arrayassign_14_5_77_abs i3 vacker_01 i4 vacker_01 i2 vacker_0 i1 vacker_0 size j i) (arrayassign_14_5_77_abs i3 vacker_01 i4 vacker_01 i2 vacker_0 i2 vacker_0 size j i) (arrayassign_14_5_77_abs i4 vacker_01 i3 vacker_01 i vacker_0 i vacker_0 size j i) (arrayassign_14_5_77_abs i4 vacker_01 i3 vacker_01 i vacker_0 i1 vacker_0 size j i) (arrayassign_14_5_77_abs i4 vacker_01 i3 vacker_01 i vacker_0 i2 vacker_0 size j i) (arrayassign_14_5_77_abs i4 vacker_01 i3 vacker_01 i1 vacker_0 i vacker_0 size j i) (arrayassign_14_5_77_abs i4 vacker_01 i3 vacker_01 i1 vacker_0 i1 vacker_0 size j i) (arrayassign_14_5_77_abs i4 vacker_01 i3 vacker_01 i1 vacker_0 i2 vacker_0 size j i) (arrayassign_14_5_77_abs i4 vacker_01 i3 vacker_01 i2 vacker_0 i vacker_0 size j i) (arrayassign_14_5_77_abs i4 vacker_01 i3 vacker_01 i2 vacker_0 i1 vacker_0 size j i) (arrayassign_14_5_77_abs i4 vacker_01 i3 vacker_01 i2 vacker_0 i2 vacker_0 size j i) (arrayassign_14_5_77_abs i4 vacker_01 i4 vacker_01 i vacker_0 i vacker_0 size j i) (arrayassign_14_5_77_abs i4 vacker_01 i4 vacker_01 i vacker_0 i1 vacker_0 size j i) (arrayassign_14_5_77_abs i4 vacker_01 i4 vacker_01 i vacker_0 i2 vacker_0 size j i) (arrayassign_14_5_77_abs i4 vacker_01 i4 vacker_01 i1 vacker_0 i vacker_0 size j i) (arrayassign_14_5_77_abs i4 vacker_01 i4 vacker_01 i1 vacker_0 i1 vacker_0 size j i) (arrayassign_14_5_77_abs i4 vacker_01 i4 vacker_01 i1 vacker_0 i2 vacker_0 size j i) (arrayassign_14_5_77_abs i4 vacker_01 i4 vacker_01 i2 vacker_0 i vacker_0 size j i) (arrayassign_14_5_77_abs i4 vacker_01 i4 vacker_01 i2 vacker_0 i1 vacker_0 size j i) (arrayassign_14_5_77_abs i4 vacker_01 i4 vacker_01 i2 vacker_0 i2 vacker_0 size j i)) (assign_15_5_86_abs i4 (ite (= i i4) vacker_0 vacker_01) i3 (ite (= i i3) vacker_0 vacker_01) i2 vacker_0 i1 vacker_0 size j i))))
;
;(assign)  i := (i+2)
(assert (forall ( (i Int) (j Int) (size Int) (vacker_1 Int) (vacker_0 Int) (vacker_11 Int) (vacker_01 Int) (i1 Int) (i2 Int) (i3 Int) (i4 Int)) (=> (and (=> (= i1 i2) (= vacker_0 vacker_1)) (=> (= i3 i4) (= vacker_01 vacker_11)) (assign_15_5_86_abs i3 vacker_01 i3 vacker_01 i1 vacker_0 i1 vacker_0 size j i) (assign_15_5_86_abs i3 vacker_01 i3 vacker_01 i1 vacker_0 i2 vacker_0 size j i) (assign_15_5_86_abs i3 vacker_01 i3 vacker_01 i2 vacker_0 i1 vacker_0 size j i) (assign_15_5_86_abs i3 vacker_01 i3 vacker_01 i2 vacker_0 i2 vacker_0 size j i) (assign_15_5_86_abs i3 vacker_01 i4 vacker_01 i1 vacker_0 i1 vacker_0 size j i) (assign_15_5_86_abs i3 vacker_01 i4 vacker_01 i1 vacker_0 i2 vacker_0 size j i) (assign_15_5_86_abs i3 vacker_01 i4 vacker_01 i2 vacker_0 i1 vacker_0 size j i) (assign_15_5_86_abs i3 vacker_01 i4 vacker_01 i2 vacker_0 i2 vacker_0 size j i) (assign_15_5_86_abs i4 vacker_01 i3 vacker_01 i1 vacker_0 i1 vacker_0 size j i) (assign_15_5_86_abs i4 vacker_01 i3 vacker_01 i1 vacker_0 i2 vacker_0 size j i) (assign_15_5_86_abs i4 vacker_01 i3 vacker_01 i2 vacker_0 i1 vacker_0 size j i) (assign_15_5_86_abs i4 vacker_01 i3 vacker_01 i2 vacker_0 i2 vacker_0 size j i) (assign_15_5_86_abs i4 vacker_01 i4 vacker_01 i1 vacker_0 i1 vacker_0 size j i) (assign_15_5_86_abs i4 vacker_01 i4 vacker_01 i1 vacker_0 i2 vacker_0 size j i) (assign_15_5_86_abs i4 vacker_01 i4 vacker_01 i2 vacker_0 i1 vacker_0 size j i) (assign_15_5_86_abs i4 vacker_01 i4 vacker_01 i2 vacker_0 i2 vacker_0 size j i)) (assign_16_5_95_abs i4 vacker_01 i3 vacker_01 i2 vacker_0 i1 vacker_0 size j (+ i 2)))))
;
;(assign)  j := (j+1)
(assert (forall ( (i Int) (j Int) (size Int) (vacker_1 Int) (vacker_0 Int) (vacker_11 Int) (vacker_01 Int) (i1 Int) (i2 Int) (i3 Int) (i4 Int)) (=> (and (=> (= i1 i2) (= vacker_0 vacker_1)) (=> (= i3 i4) (= vacker_01 vacker_11)) (assign_16_5_95_abs i3 vacker_01 i3 vacker_01 i1 vacker_0 i1 vacker_0 size j i) (assign_16_5_95_abs i3 vacker_01 i3 vacker_01 i1 vacker_0 i2 vacker_0 size j i) (assign_16_5_95_abs i3 vacker_01 i3 vacker_01 i2 vacker_0 i1 vacker_0 size j i) (assign_16_5_95_abs i3 vacker_01 i3 vacker_01 i2 vacker_0 i2 vacker_0 size j i) (assign_16_5_95_abs i3 vacker_01 i4 vacker_01 i1 vacker_0 i1 vacker_0 size j i) (assign_16_5_95_abs i3 vacker_01 i4 vacker_01 i1 vacker_0 i2 vacker_0 size j i) (assign_16_5_95_abs i3 vacker_01 i4 vacker_01 i2 vacker_0 i1 vacker_0 size j i) (assign_16_5_95_abs i3 vacker_01 i4 vacker_01 i2 vacker_0 i2 vacker_0 size j i) (assign_16_5_95_abs i4 vacker_01 i3 vacker_01 i1 vacker_0 i1 vacker_0 size j i) (assign_16_5_95_abs i4 vacker_01 i3 vacker_01 i1 vacker_0 i2 vacker_0 size j i) (assign_16_5_95_abs i4 vacker_01 i3 vacker_01 i2 vacker_0 i1 vacker_0 size j i) (assign_16_5_95_abs i4 vacker_01 i3 vacker_01 i2 vacker_0 i2 vacker_0 size j i) (assign_16_5_95_abs i4 vacker_01 i4 vacker_01 i1 vacker_0 i1 vacker_0 size j i) (assign_16_5_95_abs i4 vacker_01 i4 vacker_01 i1 vacker_0 i2 vacker_0 size j i) (assign_16_5_95_abs i4 vacker_01 i4 vacker_01 i2 vacker_0 i1 vacker_0 size j i) (assign_16_5_95_abs i4 vacker_01 i4 vacker_01 i2 vacker_0 i2 vacker_0 size j i)) (while_13_1_98_abs i4 vacker_01 i3 vacker_01 i2 vacker_0 i1 vacker_0 size (+ j 1) i))))
;
;(assign)  i := 0
(assert (forall ( (i Int) (j Int) (size Int) (vacker_1 Int) (vacker_0 Int) (vacker_11 Int) (vacker_01 Int) (i1 Int) (i2 Int) (i3 Int) (i4 Int)) (=> (and (=> (= i1 i2) (= vacker_0 vacker_1)) (=> (= i3 i4) (= vacker_01 vacker_11)) (assign_19_1_104_abs i3 vacker_01 i3 vacker_01 i1 vacker_0 i1 vacker_0 size j i) (assign_19_1_104_abs i3 vacker_01 i3 vacker_01 i1 vacker_0 i2 vacker_0 size j i) (assign_19_1_104_abs i3 vacker_01 i3 vacker_01 i2 vacker_0 i1 vacker_0 size j i) (assign_19_1_104_abs i3 vacker_01 i3 vacker_01 i2 vacker_0 i2 vacker_0 size j i) (assign_19_1_104_abs i3 vacker_01 i4 vacker_01 i1 vacker_0 i1 vacker_0 size j i) (assign_19_1_104_abs i3 vacker_01 i4 vacker_01 i1 vacker_0 i2 vacker_0 size j i) (assign_19_1_104_abs i3 vacker_01 i4 vacker_01 i2 vacker_0 i1 vacker_0 size j i) (assign_19_1_104_abs i3 vacker_01 i4 vacker_01 i2 vacker_0 i2 vacker_0 size j i) (assign_19_1_104_abs i4 vacker_01 i3 vacker_01 i1 vacker_0 i1 vacker_0 size j i) (assign_19_1_104_abs i4 vacker_01 i3 vacker_01 i1 vacker_0 i2 vacker_0 size j i) (assign_19_1_104_abs i4 vacker_01 i3 vacker_01 i2 vacker_0 i1 vacker_0 size j i) (assign_19_1_104_abs i4 vacker_01 i3 vacker_01 i2 vacker_0 i2 vacker_0 size j i) (assign_19_1_104_abs i4 vacker_01 i4 vacker_01 i1 vacker_0 i1 vacker_0 size j i) (assign_19_1_104_abs i4 vacker_01 i4 vacker_01 i1 vacker_0 i2 vacker_0 size j i) (assign_19_1_104_abs i4 vacker_01 i4 vacker_01 i2 vacker_0 i1 vacker_0 size j i) (assign_19_1_104_abs i4 vacker_01 i4 vacker_01 i2 vacker_0 i2 vacker_0 size j i)) (while_20_1_142_abs i4 vacker_01 i3 vacker_01 i2 vacker_0 i1 vacker_0 size j 0))))
;
;(while)   while((i<size))
(assert (forall ( (vacker_1 Int) (vacker_0 Int) (vacker_11 Int) (vacker_01 Int) (size Int) (j Int) (i Int) (i1 Int) (i2 Int) (i3 Int) (i4 Int)) (=> (and (=> (= i3 i4) (= vacker_0 vacker_1)) (=> (= i1 i2) (= vacker_01 vacker_11)) (while_20_1_142_abs i3 vacker_0 i3 vacker_0 i1 vacker_01 i1 vacker_01 size j i) (while_20_1_142_abs i3 vacker_0 i3 vacker_0 i1 vacker_01 i2 vacker_01 size j i) (while_20_1_142_abs i3 vacker_0 i3 vacker_0 i2 vacker_01 i1 vacker_01 size j i) (while_20_1_142_abs i3 vacker_0 i3 vacker_0 i2 vacker_01 i2 vacker_01 size j i) (while_20_1_142_abs i3 vacker_0 i4 vacker_0 i1 vacker_01 i1 vacker_01 size j i) (while_20_1_142_abs i3 vacker_0 i4 vacker_0 i1 vacker_01 i2 vacker_01 size j i) (while_20_1_142_abs i3 vacker_0 i4 vacker_0 i2 vacker_01 i1 vacker_01 size j i) (while_20_1_142_abs i3 vacker_0 i4 vacker_0 i2 vacker_01 i2 vacker_01 size j i) (while_20_1_142_abs i4 vacker_0 i3 vacker_0 i1 vacker_01 i1 vacker_01 size j i) (while_20_1_142_abs i4 vacker_0 i3 vacker_0 i1 vacker_01 i2 vacker_01 size j i) (while_20_1_142_abs i4 vacker_0 i3 vacker_0 i2 vacker_01 i1 vacker_01 size j i) (while_20_1_142_abs i4 vacker_0 i3 vacker_0 i2 vacker_01 i2 vacker_01 size j i) (while_20_1_142_abs i4 vacker_0 i4 vacker_0 i1 vacker_01 i1 vacker_01 size j i) (while_20_1_142_abs i4 vacker_0 i4 vacker_0 i1 vacker_01 i2 vacker_01 size j i) (while_20_1_142_abs i4 vacker_0 i4 vacker_0 i2 vacker_01 i1 vacker_01 size j i) (while_20_1_142_abs i4 vacker_0 i4 vacker_0 i2 vacker_01 i2 vacker_01 size j i) (< i size)) (assert_21_5_130_abs i4 vacker_0 i3 vacker_0 i2 vacker_01 i1 vacker_01 size j i))))
(assert (forall ( (vacker_1 Int) (vacker_0 Int) (vacker_11 Int) (vacker_01 Int) (size Int) (j Int) (i Int) (i1 Int) (i2 Int) (i3 Int) (i4 Int)) (=> (and (=> (= i3 i4) (= vacker_0 vacker_1)) (=> (= i1 i2) (= vacker_01 vacker_11)) (while_20_1_142_abs i3 vacker_0 i3 vacker_0 i1 vacker_01 i1 vacker_01 size j i) (while_20_1_142_abs i3 vacker_0 i3 vacker_0 i1 vacker_01 i2 vacker_01 size j i) (while_20_1_142_abs i3 vacker_0 i3 vacker_0 i2 vacker_01 i1 vacker_01 size j i) (while_20_1_142_abs i3 vacker_0 i3 vacker_0 i2 vacker_01 i2 vacker_01 size j i) (while_20_1_142_abs i3 vacker_0 i4 vacker_0 i1 vacker_01 i1 vacker_01 size j i) (while_20_1_142_abs i3 vacker_0 i4 vacker_0 i1 vacker_01 i2 vacker_01 size j i) (while_20_1_142_abs i3 vacker_0 i4 vacker_0 i2 vacker_01 i1 vacker_01 size j i) (while_20_1_142_abs i3 vacker_0 i4 vacker_0 i2 vacker_01 i2 vacker_01 size j i) (while_20_1_142_abs i4 vacker_0 i3 vacker_0 i1 vacker_01 i1 vacker_01 size j i) (while_20_1_142_abs i4 vacker_0 i3 vacker_0 i1 vacker_01 i2 vacker_01 size j i) (while_20_1_142_abs i4 vacker_0 i3 vacker_0 i2 vacker_01 i1 vacker_01 size j i) (while_20_1_142_abs i4 vacker_0 i3 vacker_0 i2 vacker_01 i2 vacker_01 size j i) (while_20_1_142_abs i4 vacker_0 i4 vacker_0 i1 vacker_01 i1 vacker_01 size j i) (while_20_1_142_abs i4 vacker_0 i4 vacker_0 i1 vacker_01 i2 vacker_01 size j i) (while_20_1_142_abs i4 vacker_0 i4 vacker_0 i2 vacker_01 i1 vacker_01 size j i) (while_20_1_142_abs i4 vacker_0 i4 vacker_0 i2 vacker_01 i2 vacker_01 size j i) (not (< i size))) (end_abs i4 vacker_0 i3 vacker_0 i2 vacker_01 i1 vacker_01 size j i))))
;
;(assert)  (a_copy[i]==a[j])
(assert (forall ( (i Int) (j Int) (size Int) (acker1 Int) (acker Int)) (=> (assert_21_5_130_abs i acker i acker j acker1 j acker1 size j i) (= acker acker1))))
(assert (forall ( (i Int) (j Int) (size Int) (vacker_1 Int) (vacker_0 Int) (vacker_11 Int) (vacker_01 Int) (i1 Int) (i2 Int) (i3 Int) (i4 Int)) (=> (and (=> (= i1 i2) (= vacker_0 vacker_1)) (=> (= i3 i4) (= vacker_01 vacker_11)) (assert_21_5_130_abs i3 vacker_01 i3 vacker_01 i1 vacker_0 i1 vacker_0 size j i) (assert_21_5_130_abs i3 vacker_01 i3 vacker_01 i1 vacker_0 i2 vacker_0 size j i) (assert_21_5_130_abs i3 vacker_01 i3 vacker_01 i2 vacker_0 i1 vacker_0 size j i) (assert_21_5_130_abs i3 vacker_01 i3 vacker_01 i2 vacker_0 i2 vacker_0 size j i) (assert_21_5_130_abs i3 vacker_01 i4 vacker_01 i1 vacker_0 i1 vacker_0 size j i) (assert_21_5_130_abs i3 vacker_01 i4 vacker_01 i1 vacker_0 i2 vacker_0 size j i) (assert_21_5_130_abs i3 vacker_01 i4 vacker_01 i2 vacker_0 i1 vacker_0 size j i) (assert_21_5_130_abs i3 vacker_01 i4 vacker_01 i2 vacker_0 i2 vacker_0 size j i) (assert_21_5_130_abs i4 vacker_01 i3 vacker_01 i1 vacker_0 i1 vacker_0 size j i) (assert_21_5_130_abs i4 vacker_01 i3 vacker_01 i1 vacker_0 i2 vacker_0 size j i) (assert_21_5_130_abs i4 vacker_01 i3 vacker_01 i2 vacker_0 i1 vacker_0 size j i) (assert_21_5_130_abs i4 vacker_01 i3 vacker_01 i2 vacker_0 i2 vacker_0 size j i) (assert_21_5_130_abs i4 vacker_01 i4 vacker_01 i1 vacker_0 i1 vacker_0 size j i) (assert_21_5_130_abs i4 vacker_01 i4 vacker_01 i1 vacker_0 i2 vacker_0 size j i) (assert_21_5_130_abs i4 vacker_01 i4 vacker_01 i2 vacker_0 i1 vacker_0 size j i) (assert_21_5_130_abs i4 vacker_01 i4 vacker_01 i2 vacker_0 i2 vacker_0 size j i)) (assign_22_5_139_abs i4 vacker_01 i3 vacker_01 i2 vacker_0 i1 vacker_0 size j i))))
;
;(assign)  i := (i+1)
(assert (forall ( (i Int) (j Int) (size Int) (vacker_1 Int) (vacker_0 Int) (vacker_11 Int) (vacker_01 Int) (i1 Int) (i2 Int) (i3 Int) (i4 Int)) (=> (and (=> (= i1 i2) (= vacker_0 vacker_1)) (=> (= i3 i4) (= vacker_01 vacker_11)) (assign_22_5_139_abs i3 vacker_01 i3 vacker_01 i1 vacker_0 i1 vacker_0 size j i) (assign_22_5_139_abs i3 vacker_01 i3 vacker_01 i1 vacker_0 i2 vacker_0 size j i) (assign_22_5_139_abs i3 vacker_01 i3 vacker_01 i2 vacker_0 i1 vacker_0 size j i) (assign_22_5_139_abs i3 vacker_01 i3 vacker_01 i2 vacker_0 i2 vacker_0 size j i) (assign_22_5_139_abs i3 vacker_01 i4 vacker_01 i1 vacker_0 i1 vacker_0 size j i) (assign_22_5_139_abs i3 vacker_01 i4 vacker_01 i1 vacker_0 i2 vacker_0 size j i) (assign_22_5_139_abs i3 vacker_01 i4 vacker_01 i2 vacker_0 i1 vacker_0 size j i) (assign_22_5_139_abs i3 vacker_01 i4 vacker_01 i2 vacker_0 i2 vacker_0 size j i) (assign_22_5_139_abs i4 vacker_01 i3 vacker_01 i1 vacker_0 i1 vacker_0 size j i) (assign_22_5_139_abs i4 vacker_01 i3 vacker_01 i1 vacker_0 i2 vacker_0 size j i) (assign_22_5_139_abs i4 vacker_01 i3 vacker_01 i2 vacker_0 i1 vacker_0 size j i) (assign_22_5_139_abs i4 vacker_01 i3 vacker_01 i2 vacker_0 i2 vacker_0 size j i) (assign_22_5_139_abs i4 vacker_01 i4 vacker_01 i1 vacker_0 i1 vacker_0 size j i) (assign_22_5_139_abs i4 vacker_01 i4 vacker_01 i1 vacker_0 i2 vacker_0 size j i) (assign_22_5_139_abs i4 vacker_01 i4 vacker_01 i2 vacker_0 i1 vacker_0 size j i) (assign_22_5_139_abs i4 vacker_01 i4 vacker_01 i2 vacker_0 i2 vacker_0 size j i)) (while_20_1_142_abs i4 vacker_01 i3 vacker_01 i2 vacker_0 i1 vacker_0 size j (+ i 1)))))
(check-sat)
